p cnf 1 32
 222024548971574687 5%:-8,;,31$<5 3.6936064522449454 0
-222024548971574687 222024548971574687 0
-222024548971574687 222024548971574687  7 9+3+382: 0
-222024548971574687 222024548971574687 $#:&.4 0.6480731789390615 0
 222024548971574687 0
-222024548971574687 222024548971574687 (! )76%(2'/$"?+/55 8.094191837319887 0
 222024548971574687 ?1=8 / 0
-222024548971574687 222024548971574687 36 1.909427389013233 0
-222024548971574687 222024548971574687 8)21%;>,3&6$=2-0 0
-222024548971574687 222024548971574687 4.664900256779489 0
-222024548971574687 222024548971574687 0
-222024548971574687 222024548971574687
